NAME: Instances/Nodes/20n_10s_15d_instance.tsp
COMMENT: Ben Desjardins (bdesj038@uottawa.ca)
DIMENSION: 20
SPARCITY: 10
%HOLES: 15.0%
EDGE_WEIGHT_TYPE: EUC_2D


NODE	X_LOC	Y_LOC	DEMAND	BATTERY
DATASTART
0	0	0	0	0
1	-110	-23	1	21
2	96	-374	1	42
3	-483	104	1	50
4	-206	-31	1	83
5	-437	308	1	68
6	-219	-375	1	87
7	274	-35	1	47
8	-14	-181	1	80
9	197	42	1	24
10	196	-437	1	25
11	372	389	1	90
12	497	-240	1	68
13	422	5	1	15
14	-231	10	1	50
15	86	-315	1	20
16	486	-461	1	71
EODATA
NODE	X_LOC	Y_LOC	DEMAND	DEGREE
HOLESTART
0	-160	320	-1	12
1	200	-460	-1	12
2	-320	-80	-1	12
EOHOLE
EOF
